40 390 
1 7 1
1 8 1
1 9 1
1 11 1
1 12 1
1 15 1
1 16 1
1 17 1
1 18 1
1 19 1
1 22 1
1 27 1
1 30 1
1 32 1
1 33 1
1 34 1
1 36 1
1 38 1
2 3 1
2 7 1
2 9 1
2 15 1
2 16 1
2 20 1
2 22 1
2 25 1
2 27 1
2 28 1
2 30 1
2 33 1
2 34 1
2 36 1
2 37 1
2 39 1
3 5 1
3 6 1
3 7 1
3 8 1
3 9 1
3 13 1
3 14 1
3 15 1
3 18 1
3 21 1
3 23 1
3 25 1
3 28 1
3 29 1
3 30 1
3 31 1
3 35 1
3 39 1
4 6 1
4 7 1
4 8 1
4 10 1
4 11 1
4 12 1
4 14 1
4 15 1
4 17 1
4 18 1
4 19 1
4 21 1
4 22 1
4 23 1
4 24 1
4 25 1
4 30 1
4 31 1
4 34 1
4 35 1
4 36 1
4 37 1
5 8 1
5 10 1
5 11 1
5 12 1
5 13 1
5 14 1
5 15 1
5 16 1
5 18 1
5 19 1
5 21 1
5 26 1
5 30 1
5 34 1
5 35 1
5 36 1
5 39 1
6 9 1
6 12 1
6 15 1
6 18 1
6 19 1
6 22 1
6 23 1
6 25 1
6 29 1
6 30 1
6 32 1
6 34 1
6 36 1
6 40 1
7 10 1
7 13 1
7 14 1
7 15 1
7 16 1
7 23 1
7 27 1
7 29 1
7 30 1
7 32 1
7 33 1
7 35 1
7 38 1
7 39 1
7 40 1
8 9 1
8 10 1
8 14 1
8 15 1
8 17 1
8 19 1
8 20 1
8 21 1
8 22 1
8 25 1
8 29 1
8 30 1
8 31 1
8 33 1
8 34 1
8 35 1
8 36 1
8 37 1
9 10 1
9 13 1
9 14 1
9 15 1
9 16 1
9 18 1
9 19 1
9 22 1
9 23 1
9 25 1
9 31 1
9 34 1
9 35 1
9 36 1
9 37 1
9 38 1
9 39 1
10 13 1
10 14 1
10 17 1
10 18 1
10 20 1
10 23 1
10 24 1
10 25 1
10 32 1
10 33 1
10 35 1
11 12 1
11 13 1
11 17 1
11 19 1
11 20 1
11 22 1
11 23 1
11 24 1
11 26 1
11 28 1
11 29 1
11 30 1
11 33 1
11 38 1
11 39 1
12 14 1
12 16 1
12 17 1
12 22 1
12 28 1
12 31 1
12 34 1
12 36 1
12 38 1
12 39 1
12 40 1
13 14 1
13 15 1
13 16 1
13 19 1
13 22 1
13 23 1
13 25 1
13 27 1
13 29 1
13 31 1
13 33 1
13 36 1
13 37 1
13 39 1
13 40 1
14 18 1
14 20 1
14 22 1
14 27 1
14 34 1
14 37 1
14 38 1
15 21 1
15 23 1
15 24 1
15 25 1
15 28 1
15 30 1
15 32 1
15 35 1
15 36 1
15 37 1
15 38 1
15 39 1
15 40 1
16 20 1
16 22 1
16 24 1
16 26 1
16 28 1
16 29 1
16 30 1
16 31 1
16 33 1
16 34 1
16 35 1
16 37 1
16 38 1
16 39 1
16 40 1
17 18 1
17 20 1
17 21 1
17 23 1
17 24 1
17 27 1
17 29 1
17 32 1
17 35 1
17 37 1
17 39 1
17 40 1
18 19 1
18 20 1
18 21 1
18 23 1
18 24 1
18 26 1
18 28 1
18 29 1
18 30 1
18 31 1
18 33 1
18 35 1
18 36 1
18 37 1
18 38 1
18 39 1
19 20 1
19 21 1
19 23 1
19 24 1
19 25 1
19 28 1
19 30 1
19 34 1
19 35 1
19 37 1
19 38 1
20 22 1
20 26 1
20 27 1
20 29 1
20 30 1
20 34 1
20 35 1
20 38 1
20 39 1
20 40 1
21 23 1
21 24 1
21 26 1
21 28 1
21 30 1
21 38 1
21 39 1
22 26 1
22 27 1
22 28 1
22 29 1
22 30 1
22 34 1
22 40 1
23 25 1
23 26 1
23 28 1
23 32 1
23 33 1
23 35 1
23 37 1
23 38 1
23 40 1
24 25 1
24 28 1
24 29 1
24 32 1
24 33 1
24 34 1
24 37 1
24 38 1
24 39 1
24 40 1
25 28 1
25 30 1
25 33 1
25 34 1
25 35 1
25 38 1
25 39 1
26 27 1
26 31 1
26 32 1
26 33 1
26 34 1
26 35 1
26 38 1
26 40 1
27 29 1
27 32 1
27 33 1
27 34 1
27 36 1
27 37 1
27 39 1
27 40 1
28 29 1
28 30 1
28 31 1
28 32 1
28 33 1
28 35 1
28 36 1
28 37 1
28 40 1
29 30 1
29 31 1
29 33 1
29 34 1
29 36 1
29 38 1
29 40 1
30 34 1
30 35 1
30 37 1
30 40 1
31 33 1
31 34 1
31 35 1
31 37 1
31 39 1
31 40 1
32 34 1
32 36 1
32 39 1
33 35 1
33 36 1
33 37 1
33 40 1
34 35 1
34 38 1
34 39 1
34 40 1
35 37 1
35 38 1
35 39 1
36 40 1
37 39 1
38 39 1
